data;
set K:= K1 K2 K3 K4 K5 K6 K7 ;

set F:= F1 F2 ;

set Q:= Q1 Q2 ;

param T:= 45;
param V: 
	K1  K2  K3  K4  K5  K6  K7  :=
Q1	1   1   1   1   0   0   0   
Q2	0   0   0   0   1   1   1   
; # if resorce k is of type q

param TF:= 
K1 6
K2 6
K3 6
K4 6
K5 12
K6 12
K7 12
; # number of continuous time slots resource can fly

param TR:= 
K1 2
K2 2
K3 2
K4 2
K5 4
K6 4
K7 4
; #  number of continuous time slots resource k needs to rest between flights

param P:= 
K1 36
K2 36
K3 36
K4 36
K5 36
K6 36
K7 36
; #  number of continuous time slots a pilot can be present including rest times for resource k 

param N:= 
K1 4
K2 4
K3 4
K4 4
K5 2
K6 1
K7 2
; # max number of flights resource k can fly in the total time period

param A: 
	K1  K2  K3  K4  K5  K6  K7  :=
1	1   1   1   1   1   1   1   
2	1   1   1   1   1   1   1   
3	1   1   1   1   1   1   1   
4	1   1   1   1   1   1   1   
5	1   1   1   1   1   1   1   
6	1   1   1   1   1   1   1   
7	1   1   1   1   1   1   1   
8	1   1   1   1   1   1   1   
9	1   1   1   1   1   1   1   
10	1   1   1   1   1   1   1   
11	1   1   1   1   1   1   1   
12	1   1   1   1   1   1   1   
13	1   1   1   1   1   1   1   
14	1   1   1   1   1   1   1   
15	1   1   1   1   1   1   1   
16	1   1   1   1   1   1   1   
17	1   1   1   1   1   1   1   
18	1   1   1   1   1   1   1   
19	1   1   1   1   1   1   1   
20	1   1   1   1   1   1   1   
21	1   1   1   1   1   1   1   
22	1   1   1   1   1   1   1   
23	1   1   1   1   1   1   1   
24	1   1   1   1   1   1   1   
25	1   1   1   1   1   1   1   
26	1   1   1   1   1   1   1   
27	1   1   1   1   1   1   1   
28	1   1   1   1   1   1   1   
29	1   1   1   1   1   1   1   
30	1   1   1   1   1   1   1   
31	1   1   1   1   1   1   1   
32	1   1   1   1   1   1   1   
33	1   1   1   1   1   1   1   
34	1   1   1   1   1   1   1   
35	1   1   1   1   1   1   1   
36	1   1   1   1   1   1   1   
37	1   1   1   1   1   1   1   
38	1   1   1   1   1   1   1   
39	1   1   1   1   1   0   1   
40	1   1   1   1   1   0   1   
41	1   1   1   1   1   0   1   
42	1   1   1   1   1   0   1   
43	1   1   1   1   1   0   1   
44	1   1   1   1   1   0   1   
45	1   1   1   1   1   0   1   
; # availability of resorce k in time slot t

param B: 
	F1  F2  :=
Q1	0   0   
Q2	0   0   
; # if front f requires resources of type q

param U: 
	F1  F2  :=
K1	0   0   
K2	0   0   
K3	0   0   
K4	0   0   
K5	2   2   
K6	2   2   
K7	2   2   
; # transit time of resource

param C:= 
K1 900
K2 900
K3 1500
K4 4500
K5 5500
K6 5500
K7 5500
; #  water capacity of resource k

param S:= 
F1 8
F2 7
; # max number of resources that can fly at front f in the same time slot

param D:= 

[*,*,F1 ]:  K1    K2    K3    K4    K5    K6    K7    :=
1           1.95  1.95  1.95  1.56  1.17  1.17  1.17  
2           1.95  1.95  1.95  1.56  1.17  1.17  1.17  
3           1.95  1.95  1.95  1.56  1.17  1.17  1.17  
4           1.95  1.95  1.95  1.56  1.17  1.17  1.17  
5           1.95  1.95  1.95  1.56  1.17  1.17  1.17  
6           1.95  1.95  1.95  1.56  1.17  1.17  1.17  
7           1.95  1.95  1.95  1.56  1.17  1.17  1.17  
8           1.95  1.95  1.95  1.56  1.17  1.17  1.17  
9           1.95  1.95  1.95  1.56  1.17  1.17  1.17  
10          1.95  1.95  1.95  1.56  1.17  1.17  1.17  
11          1.95  1.95  1.95  1.56  1.17  1.17  1.17  
12          1.95  1.95  1.95  1.56  1.17  1.17  1.17  
13          1.95  1.95  1.95  1.56  1.17  1.17  1.17  
14          1.95  1.95  1.95  1.56  1.17  1.17  1.17  
15          1.95  1.95  1.95  1.56  1.17  1.17  1.17  
16          1.95  1.95  1.95  1.56  1.17  1.17  1.17  
17          1.95  1.95  1.95  1.56  1.17  1.17  1.17  
18          1.95  1.95  1.95  1.56  1.17  1.17  1.17  
19          1.95  1.95  1.95  1.56  1.17  1.17  1.17  
20          1.95  1.95  1.95  1.56  1.17  1.17  1.17  
21          1.95  1.95  1.95  1.56  1.17  1.17  1.17  
22          1.95  1.95  1.95  1.56  1.17  1.17  1.17  
23          1.95  1.95  1.95  1.56  1.17  1.17  1.17  
24          1.95  1.95  1.95  1.56  1.17  1.17  1.17  
25          1.86  1.86  1.86  1.48  1.11  1.11  1.11  
26          1.86  1.86  1.86  1.48  1.11  1.11  1.11  
27          1.86  1.86  1.86  1.48  1.11  1.11  1.11  
28          1.86  1.86  1.86  1.48  1.11  1.11  1.11  
29          1.86  1.86  1.86  1.48  1.11  1.11  1.11  
30          1.86  1.86  1.86  1.48  1.11  1.11  1.11  
31          1.86  1.86  1.86  1.48  1.11  1.11  1.11  
32          1.86  1.86  1.86  1.48  1.11  1.11  1.11  
33          1.86  1.86  1.86  1.48  1.11  1.11  1.11  
34          1.95  1.95  1.95  1.56  1.17  1.17  1.17  
35          1.95  1.95  1.95  1.56  1.17  1.17  1.17  
36          1.95  1.95  1.95  1.56  1.17  1.17  1.17  
37          1.95  1.95  1.95  1.56  1.17  1.17  1.17  
38          1.95  1.95  1.95  1.56  1.17  1.17  1.17  
39          1.95  1.95  1.95  1.56  1.17  1.17  1.17  
40          1.95  1.95  1.95  1.56  1.17  1.17  1.17  
41          1.95  1.95  1.95  1.56  1.17  1.17  1.17  
42          1.95  1.95  1.95  1.56  1.17  1.17  1.17  
43          1.95  1.95  1.95  1.56  1.17  1.17  1.17  
44          1.95  1.95  1.95  1.56  1.17  1.17  1.17  
45          1.95  1.95  1.95  1.56  1.17  1.17  1.17  

[*,*,F2 ]:  K1    K2    K3    K4    K5    K6    K7    :=
1           1.44  1.44  1.44  1.14  0.86  0.86  0.86  
2           1.44  1.44  1.44  1.14  0.86  0.86  0.86  
3           1.44  1.44  1.44  1.14  0.86  0.86  0.86  
4           1.44  1.44  1.44  1.14  0.86  0.86  0.86  
5           1.44  1.44  1.44  1.14  0.86  0.86  0.86  
6           1.44  1.44  1.44  1.14  0.86  0.86  0.86  
7           1.44  1.44  1.44  1.14  0.86  0.86  0.86  
8           1.44  1.44  1.44  1.14  0.86  0.86  0.86  
9           1.44  1.44  1.44  1.14  0.86  0.86  0.86  
10          1.44  1.44  1.44  1.14  0.86  0.86  0.86  
11          1.44  1.44  1.44  1.14  0.86  0.86  0.86  
12          1.44  1.44  1.44  1.14  0.86  0.86  0.86  
13          1.44  1.44  1.44  1.14  0.86  0.86  0.86  
14          1.44  1.44  1.44  1.14  0.86  0.86  0.86  
15          1.44  1.44  1.44  1.14  0.86  0.86  0.86  
16          1.44  1.44  1.44  1.14  0.86  0.86  0.86  
17          1.44  1.44  1.44  1.14  0.86  0.86  0.86  
18          1.44  1.44  1.44  1.14  0.86  0.86  0.86  
19          1.44  1.44  1.44  1.14  0.86  0.86  0.86  
20          1.44  1.44  1.44  1.14  0.86  0.86  0.86  
21          1.44  1.44  1.44  1.14  0.86  0.86  0.86  
22          1.44  1.44  1.44  1.14  0.86  0.86  0.86  
23          1.44  1.44  1.44  1.14  0.86  0.86  0.86  
24          1.44  1.44  1.44  1.14  0.86  0.86  0.86  
25          1.36  1.36  1.36  1.09  0.82  0.82  0.82  
26          1.36  1.36  1.36  1.09  0.82  0.82  0.82  
27          1.36  1.36  1.36  1.09  0.82  0.82  0.82  
28          1.36  1.36  1.36  1.09  0.82  0.82  0.82  
29          1.36  1.36  1.36  1.09  0.82  0.82  0.82  
30          1.36  1.36  1.36  1.09  0.82  0.82  0.82  
31          1.36  1.36  1.36  1.09  0.82  0.82  0.82  
32          1.36  1.36  1.36  1.09  0.82  0.82  0.82  
33          1.36  1.36  1.36  1.09  0.82  0.82  0.82  
34          1.44  1.44  1.44  1.14  0.86  0.86  0.86  
35          1.44  1.44  1.44  1.14  0.86  0.86  0.86  
36          1.44  1.44  1.44  1.14  0.86  0.86  0.86  
37          1.44  1.44  1.44  1.14  0.86  0.86  0.86  
38          1.44  1.44  1.44  1.14  0.86  0.86  0.86  
39          1.44  1.44  1.44  1.14  0.86  0.86  0.86  
40          1.44  1.44  1.44  1.14  0.86  0.86  0.86  
41          1.44  1.44  1.44  1.14  0.86  0.86  0.86  
42          1.44  1.44  1.44  1.14  0.86  0.86  0.86  
43          1.44  1.44  1.44  1.14  0.86  0.86  0.86  
44          1.44  1.44  1.44  1.14  0.86  0.86  0.86  
45          1.44  1.44  1.44  1.14  0.86  0.86  0.86  
; # downloads resource k can do at front f in time t if intermediate time slot

param E:= 

[*,*,F1 ]:  K1    K2    K3    K4    K5    K6    K7    :=
1           0.96  0.20  0.33  0.44  0.06  0.14  0.46  
2           0.96  0.20  0.33  0.44  0.06  0.14  0.46  
3           0.96  0.20  0.33  0.44  0.06  0.14  0.46  
4           0.96  0.20  0.33  0.44  0.06  0.14  0.46  
5           0.96  0.20  0.33  0.44  0.06  0.14  0.46  
6           0.96  0.20  0.33  0.44  0.06  0.14  0.46  
7           0.96  0.20  0.33  0.44  0.06  0.14  0.46  
8           0.96  0.20  0.33  0.44  0.06  0.14  0.46  
9           0.96  0.20  0.33  0.44  0.06  0.14  0.46  
10          0.96  0.20  0.33  0.44  0.06  0.14  0.46  
11          0.96  0.20  0.33  0.44  0.06  0.14  0.46  
12          0.96  0.20  0.33  0.44  0.06  0.14  0.46  
13          0.96  0.20  0.33  0.44  0.06  0.14  0.46  
14          0.96  0.20  0.33  0.44  0.06  0.14  0.46  
15          0.96  0.20  0.33  0.44  0.06  0.14  0.46  
16          0.96  0.20  0.33  0.44  0.06  0.14  0.46  
17          0.96  0.20  0.33  0.44  0.06  0.14  0.46  
18          0.96  0.20  0.33  0.44  0.06  0.14  0.46  
19          0.96  0.20  0.33  0.44  0.06  0.14  0.46  
20          0.96  0.20  0.33  0.44  0.06  0.14  0.46  
21          0.96  0.20  0.33  0.44  0.06  0.14  0.46  
22          0.96  0.20  0.33  0.44  0.06  0.14  0.46  
23          0.96  0.20  0.33  0.44  0.06  0.14  0.46  
24          0.96  0.20  0.33  0.44  0.06  0.14  0.46  
25          0.91  0.19  0.32  0.41  0.06  0.13  0.43  
26          0.91  0.19  0.32  0.41  0.06  0.13  0.43  
27          0.91  0.19  0.32  0.41  0.06  0.13  0.43  
28          0.91  0.19  0.32  0.41  0.06  0.13  0.43  
29          0.91  0.19  0.32  0.41  0.06  0.13  0.43  
30          0.91  0.19  0.32  0.41  0.06  0.13  0.43  
31          0.91  0.19  0.32  0.41  0.06  0.13  0.43  
32          0.91  0.19  0.32  0.41  0.06  0.13  0.43  
33          0.91  0.19  0.32  0.41  0.06  0.13  0.43  
34          0.96  0.20  0.33  0.44  0.06  0.14  0.46  
35          0.96  0.20  0.33  0.44  0.06  0.14  0.46  
36          0.96  0.20  0.33  0.44  0.06  0.14  0.46  
37          0.96  0.20  0.33  0.44  0.06  0.14  0.46  
38          0.96  0.20  0.33  0.44  0.06  0.14  0.46  
39          0.96  0.20  0.33  0.44  0.06  0.14  0.46  
40          0.96  0.20  0.33  0.44  0.06  0.14  0.46  
41          0.96  0.20  0.33  0.44  0.06  0.14  0.46  
42          0.96  0.20  0.33  0.44  0.06  0.14  0.46  
43          0.96  0.20  0.33  0.44  0.06  0.14  0.46  
44          0.96  0.20  0.33  0.44  0.06  0.14  0.46  
45          0.96  0.20  0.33  0.44  0.06  0.14  0.46  

[*,*,F2 ]:  K1    K2    K3    K4    K5    K6    K7    :=
1           0.63  0.17  0.10  0.32  0.07  0.09  0.33  
2           0.63  0.17  0.10  0.32  0.07  0.09  0.33  
3           0.63  0.17  0.10  0.32  0.07  0.09  0.33  
4           0.63  0.17  0.10  0.32  0.07  0.09  0.33  
5           0.63  0.17  0.10  0.32  0.07  0.09  0.33  
6           0.63  0.17  0.10  0.32  0.07  0.09  0.33  
7           0.63  0.17  0.10  0.32  0.07  0.09  0.33  
8           0.63  0.17  0.10  0.32  0.07  0.09  0.33  
9           0.63  0.17  0.10  0.32  0.07  0.09  0.33  
10          0.63  0.17  0.10  0.32  0.07  0.09  0.33  
11          0.63  0.17  0.10  0.32  0.07  0.09  0.33  
12          0.63  0.17  0.10  0.32  0.07  0.09  0.33  
13          0.63  0.17  0.10  0.32  0.07  0.09  0.33  
14          0.63  0.17  0.10  0.32  0.07  0.09  0.33  
15          0.63  0.17  0.10  0.32  0.07  0.09  0.33  
16          0.63  0.17  0.10  0.32  0.07  0.09  0.33  
17          0.63  0.17  0.10  0.32  0.07  0.09  0.33  
18          0.63  0.17  0.10  0.32  0.07  0.09  0.33  
19          0.63  0.17  0.10  0.32  0.07  0.09  0.33  
20          0.63  0.17  0.10  0.32  0.07  0.09  0.33  
21          0.63  0.17  0.10  0.32  0.07  0.09  0.33  
22          0.63  0.17  0.10  0.32  0.07  0.09  0.33  
23          0.63  0.17  0.10  0.32  0.07  0.09  0.33  
24          0.63  0.17  0.10  0.32  0.07  0.09  0.33  
25          0.60  0.16  0.10  0.30  0.07  0.08  0.31  
26          0.60  0.16  0.10  0.30  0.07  0.08  0.31  
27          0.60  0.16  0.10  0.30  0.07  0.08  0.31  
28          0.60  0.16  0.10  0.30  0.07  0.08  0.31  
29          0.60  0.16  0.10  0.30  0.07  0.08  0.31  
30          0.60  0.16  0.10  0.30  0.07  0.08  0.31  
31          0.60  0.16  0.10  0.30  0.07  0.08  0.31  
32          0.60  0.16  0.10  0.30  0.07  0.08  0.31  
33          0.60  0.16  0.10  0.30  0.07  0.08  0.31  
34          0.63  0.17  0.10  0.32  0.07  0.09  0.33  
35          0.63  0.17  0.10  0.32  0.07  0.09  0.33  
36          0.63  0.17  0.10  0.32  0.07  0.09  0.33  
37          0.63  0.17  0.10  0.32  0.07  0.09  0.33  
38          0.63  0.17  0.10  0.32  0.07  0.09  0.33  
39          0.63  0.17  0.10  0.32  0.07  0.09  0.33  
40          0.63  0.17  0.10  0.32  0.07  0.09  0.33  
41          0.63  0.17  0.10  0.32  0.07  0.09  0.33  
42          0.63  0.17  0.10  0.32  0.07  0.09  0.33  
43          0.63  0.17  0.10  0.32  0.07  0.09  0.33  
44          0.63  0.17  0.10  0.32  0.07  0.09  0.33  
45          0.63  0.17  0.10  0.32  0.07  0.09  0.33  
; # downloads resource k can do at front f in time t if starting or ending flight

param W: 
	F1        F2        :=
1	949.62    511.33    
2	3798.47   2045.33   
3	3798.47   2045.33   
4	3798.47   2045.33   
5	3798.47   2045.33   
6	3798.47   2045.33   
7	3798.47   2045.33   
8	3798.47   2045.33   
9	3798.47   2045.33   
10	3798.47   2045.33   
11	3798.47   2045.33   
12	3798.47   2045.33   
13	3798.47   2045.33   
14	3798.47   2045.33   
15	3798.47   2045.33   
16	3798.47   2045.33   
17	3798.47   2045.33   
18	3798.47   2045.33   
19	1688.21   909.04    
20	1688.21   909.04    
21	1688.21   909.04    
22	1688.21   909.04    
23	1688.21   909.04    
24	1688.21   909.04    
25	1688.21   909.04    
26	1688.21   909.04    
27	1688.21   909.04    
28	1688.21   909.04    
29	1688.21   909.04    
30	1688.21   909.04    
31	1688.21   909.04    
32	1688.21   909.04    
33	1688.21   909.04    
34	1688.21   909.04    
35	1688.21   909.04    
36	1688.21   909.04    
37	1688.21   909.04    
38	1688.21   909.04    
39	1688.21   909.04    
40	1688.21   909.04    
41	1688.21   909.04    
42	1688.21   909.04    
43	1688.21   909.04    
44	1688.21   909.04    
45	422.05    227.26    
; # water needed at front f in time slot t

param M := 100000000; 

param a1:= 10000000;

param a2:= 100;

param a3:= 0.0001;
